WARNING: for repeatability, setting FPU to use double precision
============================[ Problem Statistics ]=============================
|                                                                             |
|  Number of variables:            50                                         |
|  Number of clauses:             218                                         |
|  Parse time:                   0.00 s                                       |
|                                                                             |
============================[ Search Statistics ]==============================
| Conflicts |          ORIGINAL         |          LEARNT          | Progress |
|           |    Vars  Clauses Literals |    Limit  Clauses Lit/Cl |          |
===============================================================================
===============================================================================
restarts              : 1
conflicts             : 72             (47368 /sec)
decisions             : 98             (0.00 % random) (64474 /sec)
propagations          : 987            (649342 /sec)
conflict literals     : 240            (27.05 % deleted)
Memory used           : 20.00 MB
CPU time              : 0.00152 s

SATISFIABLE
